Route #1: 4 92 182 57 133 195 31 108 56 45 85 165 177 65 128 168 99 94 151 160 53 101 192 112 50 109 125 189 157 33 66 
Route #2: 84 199 127 118 105 69 176 113 134 58 191 88 87 71 11 17 174 8 60 1 76 34 2 185 141 135 120 96 175 
Route #3: 140 54 89 100 37 9 12 59 143 188 29 173 166 21 139 155 121 115 144 123 137 13 75 97 30 64 67 
Route #4: 142 24 156 131 48 136 180 3 43 124 102 196 184 190 167 27 51 61 198 111 95 44 90 110 178 80 126 91 145 116 148 83 36 
Route #5: 150 187 130 171 78 132 79 
Route #6: 153 49 14 47 200 103 7 68 18 179 15 183 152 169 72 161 119 98 16 40 147 129 86 38 32 114 117 23 74 52 106 22 70 41 158 194 55 81 107 82 154 
Route #7: 163 28 6 162 63 149 42 172 197 5 62 181 122 77 35 164 104 25 10 170 26 159 46 138 186 20 193 19 73 93 146 39 
Cost 2287.7
